Version identifier: 22.1.1.0 | 2022-11-28 | 9160aff4d
CPXPARAM_Read_DataCheck                          1
CPXPARAM_MIP_Cuts_Covers                         1
CPXPARAM_MIP_Cuts_FlowCovers                     1
CPXPARAM_MIP_Cuts_MIRCut                         1
CPXPARAM_TimeLimit                               60
Tried aggregator 2 times.
MIP Presolve eliminated 76 rows and 161 columns.
MIP Presolve added 32 rows and 0 columns.
MIP Presolve modified 2938 coefficients.
Aggregator did 8 substitutions.
Reduced MIP has 689 rows, 848 columns, and 4214 nonzeros.
Reduced MIP has 824 binaries, 0 generals, 0 SOSs, and 0 indicators.
Presolve time = 0.00 sec. (6.08 ticks)
Found incumbent of value 1330.000000 after 0.01 sec. (12.60 ticks)
Probing time = 0.00 sec. (2.74 ticks)
Tried aggregator 1 time.
Detecting symmetries...
Reduced MIP has 689 rows, 848 columns, and 4214 nonzeros.
Reduced MIP has 824 binaries, 0 generals, 0 SOSs, and 0 indicators.
Presolve time = 0.00 sec. (2.71 ticks)
Probing time = 0.00 sec. (2.71 ticks)
Clique table members: 2506.
MIP emphasis: balance optimality and feasibility.
MIP search method: dynamic search.
Parallel mode: deterministic, using up to 12 threads.
Root relaxation solution time = 0.00 sec. (2.33 ticks)

        Nodes                                         Cuts/
   Node  Left     Objective  IInf  Best Integer    Best Bound    ItCnt     Gap

*     0+    0                         1330.0000        0.0000           100.00%
      0     0      226.9944    39     1330.0000      226.9944       93   82.93%
      0     0      229.4667    38     1330.0000      Cuts: 52      129   82.75%
      0     0      233.3000    51     1330.0000     Cuts: 150      193   82.46%
      0     0      236.2167    35     1330.0000     Cuts: 115      257   82.24%
      0     0      240.8000    49     1330.0000      Cuts: 34      290   81.89%
      0     0      243.8000    55     1330.0000      Cuts: 42      361   81.67%
Detecting symmetries...
      0     0      244.1462    68     1330.0000      Cuts: 85      411   81.64%
      0     0      244.1462    65     1330.0000      Cuts: 14      431   81.64%
*     0+    0                          397.0000      244.1462            38.50%
      0     0      244.4250    43      397.0000      Cuts: 17      476   38.43%
*     0+    0                          264.0000      244.4250             7.41%
      0     0      244.4250    49      264.0000      Cuts: 36      501    7.10%
*     0+    0                          259.0000      245.3189             5.28%
      0     0  -1.00000e+75     0      259.0000      245.3189      501    5.28%
Detecting symmetries...

Repeating presolve.
Tried aggregator 2 times.
MIP Presolve eliminated 490 rows and 542 columns.
MIP Presolve modified 27 coefficients.
Aggregator did 2 substitutions.
Reduced MIP has 197 rows, 304 columns, and 1101 nonzeros.
Reduced MIP has 282 binaries, 0 generals, 0 SOSs, and 0 indicators.
Presolve time = 0.00 sec. (1.69 ticks)
Probing fixed 1 vars, tightened 0 bounds.
Probing time = 0.00 sec. (0.72 ticks)
Cover probing fixed 0 vars, tightened 15 bounds.
Tried aggregator 1 time.
Detecting symmetries...
MIP Presolve eliminated 0 rows and 1 columns.
MIP Presolve modified 97 coefficients.
Reduced MIP has 197 rows, 303 columns, and 1097 nonzeros.
Reduced MIP has 281 binaries, 0 generals, 0 SOSs, and 0 indicators.
Presolve time = 0.00 sec. (0.84 ticks)
Represolve time = 0.01 sec. (5.39 ticks)
Probing time = 0.00 sec. (0.70 ticks)
Cover probing fixed 0 vars, tightened 1 bounds.
Clique table members: 788.
MIP emphasis: balance optimality and feasibility.
MIP search method: dynamic search.
Parallel mode: deterministic, using up to 12 threads.
Root relaxation solution time = 0.00 sec. (2.07 ticks)

        Nodes                                         Cuts/
   Node  Left     Objective  IInf  Best Integer    Best Bound    ItCnt     Gap

*     0+    0                          259.0000      245.7333             5.12%
      0     0      244.4250    38      259.0000      245.7333      658    5.12%
      0     0      244.8000     5      259.0000      Cuts: 50      682    5.12%
      0     0      244.8000     9      259.0000      Cuts: 13      693    5.12%
      0     0      244.8000    14      259.0000      Cuts: 23      724    5.12%
Detecting symmetries...
      0     2      244.8000     3      259.0000      245.7333      724    5.12%
Elapsed time = 0.22 sec. (131.96 ticks, tree = 0.02 MB, solutions = 4)
*   612+    5                          258.0000      249.6658             3.23%

GUB cover cuts applied:  1
Clique cuts applied:  9
Cover cuts applied:  38
Implied bound cuts applied:  128
Flow cuts applied:  0
Mixed integer rounding cuts applied:  13
Zero-half cuts applied:  21
Gomory fractional cuts applied:  9

Root node processing (before b&c):
  Real time             =    0.21 sec. (131.85 ticks)
Parallel b&c, 12 threads:
  Real time             =    0.06 sec. (33.06 ticks)
  Sync time (average)   =    0.03 sec.
  Wait time (average)   =    0.00 sec.
                          ------------
Total (root+branch&cut) =    0.28 sec. (164.91 ticks)
